numperiods = 3;
interestRate = 0.04;
VHT2dollarFactor = 5840.00; % 365 * 16.00;
n = 2      ;
Budget  = [300.0, 405.0 , 400.0];
cost = [50.0,70.0];
benefitVHT = [| 762.0, 2083.0,
              | 762.0, 2083.0,
              | 762.0, 2083.0,
              |];
upgradeName = ["extraLane1", "newLink1"];
